100
32
25
10
2
11
20
14
9
19
6
18
7
17
12
21
26
7
2
11
17
11
8
1
1
2
20
1
1
5
3
20
1
5
7
2
1
1
2
17
1
2
1
3
19
3
4
1
17
3
2
1
1
18
1
2
4
8
2
1
1
1
1
1
2
4
2
19
3
1
2
1
2
9
16
5
2
2
1
5
1
18
1
1
4
3
1
1
1
2
1
2
2
5
4
1
1
17
1
1
2
1